(set-logic LIA) (declare-var xPostExec Int) (declare-var z!15 Int) (declare-var y!0 Int) (declare-var z!M4 Int) (declare-var inB0 Bool) (declare-var x!0 Int) (declare-var zPostExec Int) (declare-var J9 Bool) (declare-var yPostExec Int) (synth-fun rankingFunction!0 ((arg0 Int) (arg1 Int) (arg2 Int)) Int ((NTInt Int) (NTbool Bool)) ((NTInt Int (arg0 arg1 arg2 0 1 (- NTInt) (+ NTInt NTInt) (- NTInt NTInt) (ite NTbool NTInt NTInt))) (NTbool Bool ((not NTbool) (and NTbool NTbool) (or NTbool NTbool) (ite NTbool NTbool NTbool) (= NTInt NTInt) (< NTInt NTInt) (> NTInt NTInt))))) (constraint (=> (and (and (and (and (and (and (and (and (and (= J9 (not (<= z!M4 x!0))) (= z!15 (+ z!M4 y!0))) (=> (not J9) (= zPostExec z!15))) (not J9)) (= inB0 (<= y!0 0))) (not inB0)) (> y!0 0)) (>= y!0 0)) (= x!0 xPostExec)) (= y!0 yPostExec)) (and (> (rankingFunction!0 x!0 y!0 z!M4) (rankingFunction!0 xPostExec yPostExec zPostExec)) (>= (rankingFunction!0 x!0 y!0 z!M4) 0)))) (check-synth)